n = 100;
C = 442;
w = [39,285,366,271,90,326,142,50,689,194,604,316,919,521,33,830,183,762,583,661,94,366,206,824,99,334,424,620,894,272,213,768,838,526,592,489,633,582,232,279,489,163,80,343,361,514,319,255,84,766,417,892,190,413,812,823,305,489,156,355,89,384,887,585,968,372,969,13,819,155,658,639,196,280,587,842,886,408,37,904,276,927,746,76,10,873,65,759,385,737,198,532,456,117,776,595,62,175,130,314];
p = [286,32,594,607,630,288,936,349,161,137,517,272,143,361,570,77,390,811,648,634,237,387,552,925,690,731,385,12,893,313,446,404,770,310,774,609,546,744,626,613,418,89,59,465,499,206,985,261,145,73,557,694,165,72,879,379,963,516,977,207,548,362,842,490,564,861,524,880,957,298,599,96,266,994,987,342,181,12,778,690,27,648,75,686,42,261,553,932,458,724,810,110,33,907,961,596,629,396,788,2];
